Version identifier: 20.1.0.0 | 2020-11-10 | 9bedb6d68
CPXPARAM_Threads                                 1
CPXPARAM_TimeLimit                               7200
CPXPARAM_MIP_Tolerances_MIPGap                   0
Generic callback                                 0x60
1 of 1 MIP starts provided solutions.
MIP start 'm1' defined initial solution with objective 1651.4258.
Tried aggregator 1 time.
Reduced MIP has 1 rows, 801 columns, and 800 nonzeros.
Reduced MIP has 800 binaries, 0 generals, 0 SOSs, and 0 indicators.
Presolve time = 0.00 sec. (0.24 ticks)
Probing time = 0.00 sec. (0.09 ticks)
Tried aggregator 1 time.
Reduced MIP has 1 rows, 801 columns, and 800 nonzeros.
Reduced MIP has 800 binaries, 0 generals, 0 SOSs, and 0 indicators.
Presolve time = 0.00 sec. (0.25 ticks)
Probing time = 0.00 sec. (0.09 ticks)
MIP emphasis: balance optimality and feasibility.
MIP search method: dynamic search.
Parallel mode: none, using 1 thread.
Root relaxation solution time = 0.00 sec. (0.17 ticks)

        Nodes                                         Cuts/
   Node  Left     Objective  IInf  Best Integer    Best Bound    ItCnt     Gap

*     0+    0                         1651.4258     5432.0000           228.93%
      0     0     2299.1741     2     1651.4258     5432.0000        0  228.93%
      0     0     1948.7072     4     1651.4258 UserPurge2: 1       14   18.00%
      0     0     1891.2346     5     1651.4258 UserPurge2: 1       29   14.52%
      0     0     1872.2253     7     1651.4258 UserPurge2: 1       39   13.37%
      0     0     1859.6977     8     1651.4258 UserPurge2: 1       56   12.61%
      0     0     1856.0392    10     1651.4258 UserPurge1: 1       61   12.39%
      0     0     1813.0158     6     1651.4258 UserPurge2: 1       96    9.78%
      0     0     1807.4532     7     1651.4258 UserPurge1: 1      105    9.45%
      0     0     1797.9468     9     1651.4258 UserPurge1: 1      112    8.87%
      0     0     1791.9660     8     1651.4258 UserPurge2: 1      123    8.51%
      0     0     1786.3523     8     1651.4258 UserPurge1: 1      128    8.17%
      0     0     1781.1296     9     1651.4258 UserPurge2: 1      147    7.85%
      0     0     1773.8301     8     1651.4258 UserPurge2: 1      170    7.41%
      0     0     1769.3640     9     1651.4258 UserPurge2: 1      179    7.14%
      0     0     1760.8153     8     1651.4258 UserPurge2: 1      202    6.62%
      0     0     1760.0434     8     1651.4258 UserPurge1: 1      208    6.58%
      0     0     1754.8767     9     1651.4258 UserPurge2: 1      222    6.26%
      0     0     1752.2825    10     1651.4258 UserPurge2: 1      241    6.11%
      0     0     1744.9157     9     1651.4258 UserPurge2: 1      258    5.66%
      0     0     1736.9995     9     1651.4258 UserPurge2: 1      271    5.18%
      0     0     1730.6761     9     1651.4258 UserPurge2: 1      286    4.80%
      0     0     1726.5663    10     1651.4258 UserPurge2: 1      308    4.55%
      0     0     1722.4880    11     1651.4258 UserPurge2: 1      322    4.30%
      0     0     1717.2235     9     1651.4258 UserPurge2: 1      352    3.98%
      0     0     1715.0559     9     1651.4258 UserPurge2: 1      365    3.85%
      0     0     1707.1320     8     1651.4258 UserPurge2: 1      387    3.37%
      0     0     1705.6729     8     1651.4258 UserPurge2: 1      403    3.28%
      0     0     1704.0666     9     1651.4258 UserPurge2: 1      410    3.19%
      0     0     1703.3506     9     1651.4258 UserPurge2: 1      419    3.14%
      0     0     1702.9132    10     1651.4258 UserPurge2: 1      426    3.12%
      0     0     1702.5280    11     1651.4258 UserPurge2: 1      436    3.09%
      0     0     1701.9601    12     1651.4258 UserPurge2: 1      441    3.06%
      0     0     1696.6259     9     1651.4258 UserPurge2: 1      466    2.74%
      0     0     1695.9153     9     1651.4258 UserPurge2: 1      479    2.69%
      0     0     1695.0291    10     1651.4258 UserPurge2: 1      494    2.64%
      0     0     1694.8739    11     1651.4258 UserPurge2: 1      497    2.63%
      0     0     1694.4171    12     1651.4258 UserPurge2: 1      505    2.60%
      0     0     1693.6611    12     1651.4258 UserPurge2: 1      517    2.56%
      0     0     1691.6152    11     1651.4258 UserPurge2: 1      534    2.43%
      0     0     1691.4288    11     1651.4258 UserPurge2: 1      536    2.42%
      0     0     1690.7940    10     1651.4258 UserPurge2: 1      544    2.38%
      0     0     1689.9239    10     1651.4258 UserPurge2: 1      560    2.33%
      0     0     1689.5672    11     1651.4258 UserPurge2: 1      563    2.31%
      0     0     1689.0926    12     1651.4258 UserPurge2: 1      574    2.28%
      0     0     1688.3962    13     1651.4258 UserPurge2: 1      594    2.24%
      0     0     1686.2122    11     1651.4258 UserPurge2: 1      619    2.11%
      0     0     1686.0006    12     1651.4258 UserPurge2: 1      622    2.09%
      0     0     1685.8203    12     1651.4258 UserPurge2: 1      631    2.08%
      0     0     1685.5445    12     1651.4258 UserPurge2: 1      640    2.07%
      0     0     1684.3181    12     1651.4258 UserPurge2: 1      662    1.99%
      0     0     1683.9444    13     1651.4258 UserPurge2: 1      673    1.97%
      0     0     1683.6646    14     1651.4258 UserPurge2: 1      679    1.95%
      0     0     1683.5288    15     1651.4258 UserPurge2: 1      687    1.94%
      0     0     1683.1069    15     1651.4258 UserPurge2: 1      707    1.92%
      0     0     1682.3648    14     1651.4258 UserPurge2: 1      726    1.87%
      0     0     1682.2296    15     1651.4258 UserPurge2: 1      731    1.87%
      0     0     1681.6388    15     1651.4258 UserPurge2: 1      753    1.83%
      0     0     1680.8600    16     1651.4258 UserPurge2: 1      776    1.78%
      0     0     1679.9564    16     1651.4258 UserPurge2: 1      798    1.73%
      0     0     1679.4016    15     1651.4258 UserPurge2: 1      820    1.69%
      0     0     1678.0281    14     1651.4258 UserPurge2: 1      841    1.61%
      0     0     1677.0948    14     1651.4258 UserPurge2: 1      860    1.55%
      0     0     1676.4394    14     1651.4258 UserPurge2: 1      883    1.51%
      0     0     1676.3919    15     1651.4258 UserPurge2: 1      890    1.51%
      0     0     1676.1894    15     1651.4258 UserPurge2: 1      907    1.50%
*     0+    0                         1653.6778     1676.1894             1.36%
      0     0     1676.0856    15     1653.6778 UserPurge2: 1      914    1.36%
      0     0     1675.8509    16     1653.6778 UserPurge2: 1      931    1.34%
      0     0     1675.1481    17     1653.6778 UserPurge2: 1      948    1.30%
      0     0     1674.8923    16     1653.6778 UserPurge2: 1      958    1.28%
      0     0     1674.3730    16     1653.6778 UserPurge2: 1      971    1.25%

Repeating presolve.
Tried aggregator 1 time.
MIP Presolve eliminated 0 rows and 202 columns.
Reduced MIP has 1 rows, 599 columns, and 598 nonzeros.
Reduced MIP has 598 binaries, 0 generals, 0 SOSs, and 0 indicators.
Presolve time = 0.00 sec. (0.22 ticks)
Probing time = 0.00 sec. (0.06 ticks)
Tried aggregator 1 time.
Reduced MIP has 1 rows, 599 columns, and 598 nonzeros.
Reduced MIP has 598 binaries, 0 generals, 0 SOSs, and 0 indicators.
Presolve time = 0.00 sec. (0.18 ticks)
Represolve time = 0.01 sec. (7.93 ticks)
Probing time = 0.00 sec. (0.06 ticks)
MIP emphasis: balance optimality and feasibility.
MIP search method: dynamic search.
Parallel mode: none, using 1 thread.
Root relaxation solution time = 0.00 sec. (4.31 ticks)

        Nodes                                         Cuts/
   Node  Left     Objective  IInf  Best Integer    Best Bound    ItCnt     Gap

*     0+    0                         1653.6778     1674.3730             1.25%
      0     0     1674.3730    16     1653.6778     1674.3730     1032    1.25%
      0     0     1674.2310    16     1653.6778 UserPurge2: 1     1044    1.24%
      0     0     1673.8126    16     1653.6778 UserPurge2: 1     1060    1.22%
      0     0     1673.5847    16     1653.6778 UserPurge2: 1     1070    1.20%
      0     0     1673.1989    17     1653.6778 UserPurge2: 1     1088    1.18%
      0     0     1673.0563    18     1653.6778 UserPurge2: 1     1105    1.17%
      0     0     1672.6858    17     1653.6778 UserPurge2: 1     1124    1.15%
      0     0     1672.4499    18     1653.6778 UserPurge2: 1     1143    1.14%
      0     0     1672.3518    19     1653.6778 UserPurge2: 1     1154    1.13%
      0     0     1671.9655    19     1653.6778 UserPurge2: 1     1181    1.11%
      0     0     1671.9170    20     1653.6778 UserPurge2: 1     1190    1.10%
      0     0     1671.8326    21     1653.6778 UserPurge2: 1     1201    1.10%
      0     2     1671.8326    21     1653.6778     1671.8274     1201    1.10%
Elapsed time = 15.57 sec. (308.23 ticks, tree = 0.01 MB, solutions = 2)
      1     3     1657.7425    25     1653.6778     1671.8274    21304    1.10%
      2     4     1657.1540    18     1653.6778     1657.7425    22145    0.25%
*     3     3      integral     0     1656.9404     1657.7425    22249    0.05%
      4     2        cutoff           1656.9404     1657.7425    22387    0.05%
      5     1        cutoff           1656.9404     1657.7423    23553    0.05%
      6     0        cutoff           1656.9404     1656.9404    28358    0.00%

User cuts applied:  1689

Root node processing (before b&c):
  Real time             =   15.57 sec. (311.11 ticks)
Sequential b&c:
  Real time             =  101.33 sec. (15632.19 ticks)
                          ------------
Total (root+branch&cut) =  116.90 sec. (15943.31 ticks)
@Parameters: 
is_S_cut                                true
is_add_all_yinF                         true
is_start_value                          true
is_usercut                              true
is_visualization                        false
uc_only_rootnode                        false

data                                    Qi
fn                                      data/Qi/instance_1000_800.csv
mode                                    NewSubmodular
solver                                  cplex

p                                       5
r                                       50

EPS                                     1.0e-06
EPS_vio                                 1.0e-04
beta                                    0.10
gap                                     0.00
nodelimit                               Inf
timelimit                               7200.00


@PrintInfos
ItCnt: 28358
Current gap: 0.00 %
Termination Status: OPTIMAL
Primal Status: FEASIBLE_POINT
Solve Time: 116.90 sec
Objective Value: 1656.940356
Number of Nodes:      7

CutInfo: [phase] num / time (sec) 
ZLP             [phase1]     0 / 0.00 [rLC]     0 / 0.00 [rUC]     0 / 0.00 [sLC]     0 / 0.00 [sUC]     0 / 0.00 
OldSubmodular   [phase1]     0 / 0.00 [rLC]     0 / 0.00 [rUC]     0 / 0.00 [sLC]     0 / 0.00 [sUC]     0 / 0.00 
NewSubmodular   [phase1]     0 / 0.00 [rLC]    58 / 7.16 [rUC]   100 / 6.10 [sLC]     1 / 1.95 [sUC]  1659 / 85.49 
PMP             [phase1]     0 / 0.00 [rLC]     4 / 3.43 [rUC]     0 / 0.00 [sLC]     2 / 1.90 [sUC]     0 / 0.00 
Separation Round: [phase1] 0  [rLC] 51  [rUC] 82  [sLC] 2  [sUC] 762
Root Best Bound 1657.742541
Root Best Integer: 1653.677806
Best Bound: 1656.940356
Best Integer: 1656.940356

